<number of tasks>
20

<cycle time>
1000

<order strength>
0,805


<task times>
1 226
2 232
3 237
4 371
5 323
6 228
7 176
8 554
9 157
10 396
11 520
12 55
13 46
14 505
15 475
16 73
17 96
18 105
19 269
20 125

<precedence relations>
1,5
1,7
1,9
2,3
2,4
2,5
3,6
4,6
5,8
6,7
6,8
6,9
7,10
8,10
8,11
9,11
9,14
9,15
10,12
11,13
12,14
12,15
13,16
13,17
14,17
14,19
15,16
15,18
16,19
16,20
17,20
18,19

<end>
